% Auto-generated by scripts/generate_dzn.py
% problem_type   = regex
% instance       = regex_34
% source_json    = instances_json/2_high_blowup/regex_34.json
% blowup         = 35.0
% representation = DFA

mode = 0;

var_count = 30;
Q = 595;
S = 2;
q0 = 1;
F = {407, 408, 409, 410, 411, 412, 413, 414, 415, 416, 417, 418, 419, 420, 421, 422, 423, 424, 425, 426, 427, 428, 429, 430, 431, 432, 433, 434, 435, 436, 437, 438, 439, 440, 441, 442, 443, 444, 445, 446, 447, 448, 449, 450, 451, 452, 453, 454, 455, 456, 457, 458, 459, 460, 461, 462, 463, 464, 465, 466, 467, 468, 469, 470, 471, 472, 473, 474, 475, 476, 477, 478, 479, 480, 481, 482, 483, 484, 485, 486, 487, 488, 489, 490, 491, 492, 493, 494, 495, 496, 497, 498, 499, 500, 501, 502, 503, 504, 505, 506, 507, 508, 509, 510, 511, 512, 513, 514, 515, 516, 517, 518, 519, 520, 521, 522, 523, 524, 525, 526, 527, 528, 529, 530, 531, 532, 533, 534, 535, 536, 537, 538, 539, 540, 541, 542, 543, 544, 545, 546, 547, 548, 549, 550, 551, 552, 553, 554, 555, 556, 557, 558, 559, 560, 561, 562, 563, 564, 565, 566, 567, 568, 569, 570, 571, 572, 573, 574, 575, 576, 577, 578, 579, 580, 581, 582, 583, 584, 585, 586, 587, 588, 589, 590, 591, 592, 593, 594, 595};
d_dfa = array2d(1..595, 1..2, [
  2, 1,
  2, 3,
  2, 4,
  6, 5,
  8, 7,
  8, 9,
  11, 10,
  11, 12,
  11, 13,
  15, 14,
  15, 16,
  15, 17,
  19, 18,
  21, 20,
  21, 22,
  21, 23,
  25, 24,
  27, 26,
  27, 28,
  30, 29,
  30, 31,
  30, 32,
  34, 33,
  36, 35,
  36, 37,
  39, 38,
  39, 40,
  39, 41,
  43, 42,
  43, 44,
  43, 45,
  47, 46,
  49, 48,
  49, 50,
  52, 51,
  52, 53,
  52, 54,
  56, 55,
  56, 57,
  56, 58,
  60, 59,
  62, 61,
  62, 63,
  62, 64,
  66, 65,
  68, 67,
  68, 69,
  71, 70,
  71, 72,
  71, 73,
  75, 74,
  75, 76,
  75, 77,
  79, 78,
  81, 80,
  81, 82,
  81, 83,
  85, 84,
  87, 86,
  87, 88,
  90, 89,
  90, 91,
  90, 92,
  94, 93,
  96, 95,
  96, 97,
  99, 98,
  99, 100,
  99, 101,
  103, 102,
  103, 104,
  103, 105,
  107, 106,
  109, 108,
  109, 110,
  109, 111,
  113, 112,
  115, 114,
  115, 116,
  118, 117,
  118, 119,
  118, 120,
  122, 121,
  124, 123,
  124, 125,
  127, 126,
  127, 128,
  127, 129,
  131, 130,
  131, 132,
  131, 133,
  135, 134,
  137, 136,
  137, 138,
  140, 139,
  140, 141,
  140, 142,
  144, 143,
  144, 145,
  144, 146,
  148, 147,
  150, 149,
  150, 151,
  150, 152,
  154, 153,
  156, 155,
  156, 157,
  159, 158,
  159, 160,
  159, 161,
  163, 162,
  165, 164,
  165, 166,
  168, 167,
  168, 169,
  168, 170,
  172, 171,
  172, 173,
  172, 174,
  176, 175,
  178, 177,
  178, 179,
  181, 180,
  181, 182,
  181, 183,
  185, 184,
  185, 186,
  185, 187,
  189, 188,
  191, 190,
  191, 192,
  191, 193,
  195, 194,
  197, 196,
  197, 198,
  200, 199,
  200, 201,
  200, 202,
  204, 203,
  204, 205,
  204, 206,
  208, 207,
  210, 209,
  210, 211,
  210, 212,
  214, 213,
  216, 215,
  216, 217,
  219, 218,
  219, 220,
  219, 221,
  223, 222,
  225, 224,
  225, 226,
  228, 227,
  228, 229,
  228, 230,
  232, 231,
  232, 233,
  232, 234,
  236, 235,
  238, 237,
  238, 239,
  241, 240,
  241, 242,
  241, 243,
  245, 244,
  245, 246,
  245, 247,
  249, 248,
  251, 250,
  251, 252,
  251, 253,
  255, 254,
  257, 256,
  257, 258,
  260, 259,
  260, 261,
  260, 262,
  264, 263,
  264, 265,
  264, 266,
  268, 267,
  270, 269,
  270, 271,
  270, 272,
  274, 273,
  276, 275,
  276, 277,
  279, 278,
  279, 280,
  279, 281,
  283, 282,
  285, 284,
  285, 286,
  288, 287,
  288, 289,
  288, 290,
  292, 291,
  292, 293,
  292, 294,
  296, 295,
  298, 297,
  298, 299,
  298, 300,
  302, 301,
  304, 303,
  304, 305,
  307, 306,
  307, 308,
  307, 309,
  311, 310,
  313, 312,
  313, 314,
  316, 315,
  316, 317,
  316, 318,
  320, 319,
  320, 321,
  320, 322,
  324, 323,
  326, 325,
  326, 327,
  329, 328,
  329, 330,
  329, 331,
  333, 332,
  333, 334,
  333, 335,
  337, 336,
  339, 338,
  339, 340,
  339, 341,
  343, 342,
  345, 344,
  345, 346,
  348, 347,
  348, 349,
  348, 350,
  352, 351,
  352, 353,
  352, 354,
  356, 355,
  358, 357,
  358, 359,
  358, 360,
  362, 361,
  364, 363,
  364, 365,
  367, 366,
  367, 368,
  367, 369,
  371, 370,
  373, 372,
  373, 374,
  376, 375,
  376, 377,
  376, 378,
  380, 379,
  380, 381,
  380, 382,
  384, 383,
  386, 385,
  386, 387,
  386, 388,
  390, 389,
  392, 391,
  392, 393,
  395, 394,
  395, 396,
  395, 397,
  399, 398,
  401, 400,
  401, 402,
  404, 403,
  404, 405,
  404, 406,
  408, 407,
  408, 409,
  408, 410,
  412, 411,
  414, 413,
  414, 415,
  417, 416,
  417, 418,
  417, 419,
  421, 420,
  421, 422,
  421, 423,
  425, 424,
  427, 426,
  427, 428,
  427, 429,
  431, 430,
  433, 432,
  433, 434,
  436, 435,
  436, 437,
  436, 438,
  440, 439,
  442, 441,
  442, 443,
  445, 444,
  445, 446,
  445, 447,
  449, 448,
  449, 450,
  449, 451,
  453, 452,
  455, 454,
  455, 456,
  458, 457,
  458, 459,
  458, 460,
  462, 461,
  462, 463,
  462, 464,
  466, 465,
  468, 467,
  468, 469,
  468, 470,
  472, 471,
  474, 473,
  474, 475,
  477, 476,
  477, 478,
  477, 479,
  481, 480,
  481, 482,
  481, 483,
  485, 484,
  487, 486,
  487, 488,
  487, 489,
  491, 490,
  493, 492,
  493, 494,
  496, 495,
  496, 497,
  496, 498,
  500, 499,
  502, 501,
  502, 503,
  505, 504,
  505, 506,
  505, 507,
  509, 508,
  509, 510,
  509, 511,
  513, 512,
  515, 514,
  515, 516,
  515, 517,
  519, 518,
  521, 520,
  521, 522,
  524, 523,
  524, 525,
  524, 526,
  528, 527,
  530, 529,
  530, 531,
  533, 532,
  533, 534,
  533, 535,
  537, 536,
  537, 538,
  537, 539,
  541, 540,
  543, 542,
  543, 544,
  546, 545,
  546, 547,
  546, 548,
  550, 549,
  550, 551,
  550, 552,
  554, 553,
  556, 555,
  556, 557,
  556, 558,
  560, 559,
  562, 561,
  562, 563,
  565, 564,
  565, 566,
  565, 567,
  569, 568,
  571, 570,
  571, 572,
  574, 573,
  574, 575,
  574, 576,
  578, 577,
  578, 579,
  578, 580,
  582, 581,
  584, 583,
  584, 585,
  587, 586,
  587, 588,
  587, 589,
  591, 590,
  591, 592,
  591, 593,
  595, 594,
  2, 1,
  2, 3,
  2, 4,
  6, 5,
  8, 7,
  8, 9,
  11, 10,
  11, 12,
  11, 13,
  15, 14,
  15, 16,
  15, 17,
  19, 18,
  21, 20,
  21, 22,
  21, 23,
  25, 24,
  27, 26,
  27, 28,
  30, 29,
  30, 31,
  30, 32,
  34, 33,
  36, 35,
  36, 37,
  39, 38,
  39, 40,
  39, 41,
  43, 42,
  43, 44,
  43, 45,
  47, 46,
  49, 48,
  49, 50,
  52, 51,
  52, 53,
  52, 54,
  56, 55,
  56, 57,
  56, 58,
  60, 59,
  62, 61,
  62, 63,
  62, 64,
  66, 65,
  68, 67,
  68, 69,
  71, 70,
  71, 72,
  71, 73,
  75, 74,
  75, 76,
  75, 77,
  79, 78,
  81, 80,
  81, 82,
  81, 83,
  85, 84,
  87, 86,
  87, 88,
  90, 89,
  90, 91,
  90, 92,
  94, 93,
  96, 95,
  96, 97,
  99, 98,
  99, 100,
  99, 101,
  103, 102,
  103, 104,
  103, 105,
  107, 106,
  109, 108,
  109, 110,
  109, 111,
  113, 112,
  115, 114,
  115, 116,
  118, 117,
  118, 119,
  118, 120,
  122, 121,
  124, 123,
  124, 125,
  127, 126,
  127, 128,
  127, 129,
  131, 130,
  131, 132,
  131, 133,
  135, 134,
  137, 136,
  137, 138,
  140, 139,
  140, 141,
  140, 142,
  144, 143,
  144, 145,
  144, 146,
  148, 147,
  150, 149,
  150, 151,
  150, 152,
  154, 153,
  156, 155,
  156, 157,
  159, 158,
  159, 160,
  159, 161,
  163, 162,
  165, 164,
  165, 166,
  168, 167,
  168, 169,
  168, 170,
  172, 171,
  172, 173,
  172, 174,
  176, 175,
  178, 177,
  178, 179,
  181, 180,
  181, 182,
  181, 183,
  185, 184,
  185, 186,
  185, 187,
  189, 188,
  191, 190,
  191, 192,
  191, 193,
  195, 194,
  197, 196,
  197, 198,
  200, 199,
  200, 201,
  200, 202,
  204, 203,
  204, 205,
  204, 206,
  208, 207,
  210, 209,
  210, 211,
  210, 212,
  214, 213,
  216, 215,
  216, 217,
  219, 218,
  219, 220,
  219, 221,
  223, 222,
  225, 224,
  225, 226,
  228, 227,
  228, 229,
  228, 230,
  232, 231,
  232, 233,
  232, 234,
  236, 235,
  238, 237,
  238, 239,
  241, 240,
  241, 242,
  241, 243,
  245, 244,
  245, 246,
  245, 247,
  249, 248,
  251, 250,
  251, 252,
  251, 253,
  255, 254,
  257, 256,
  257, 258,
  260, 259,
  260, 261,
  260, 262,
  264, 263,
  264, 265,
  264, 266,
  268, 267,
  270, 269,
  270, 271,
  270, 272,
  274, 273,
  276, 275,
  276, 277
]);
d_nfa = array2d(1..595, 1..2, [
  {}, {},
  {}, {},
  {}, {},
  {}, {},
  {}, {},
  {}, {},
  {}, {},
  {}, {},
  {}, {},
  {}, {},
  {}, {},
  {}, {},
  {}, {},
  {}, {},
  {}, {},
  {}, {},
  {}, {},
  {}, {},
  {}, {},
  {}, {},
  {}, {},
  {}, {},
  {}, {},
  {}, {},
  {}, {},
  {}, {},
  {}, {},
  {}, {},
  {}, {},
  {}, {},
  {}, {},
  {}, {},
  {}, {},
  {}, {},
  {}, {},
  {}, {},
  {}, {},
  {}, {},
  {}, {},
  {}, {},
  {}, {},
  {}, {},
  {}, {},
  {}, {},
  {}, {},
  {}, {},
  {}, {},
  {}, {},
  {}, {},
  {}, {},
  {}, {},
  {}, {},
  {}, {},
  {}, {},
  {}, {},
  {}, {},
  {}, {},
  {}, {},
  {}, {},
  {}, {},
  {}, {},
  {}, {},
  {}, {},
  {}, {},
  {}, {},
  {}, {},
  {}, {},
  {}, {},
  {}, {},
  {}, {},
  {}, {},
  {}, {},
  {}, {},
  {}, {},
  {}, {},
  {}, {},
  {}, {},
  {}, {},
  {}, {},
  {}, {},
  {}, {},
  {}, {},
  {}, {},
  {}, {},
  {}, {},
  {}, {},
  {}, {},
  {}, {},
  {}, {},
  {}, {},
  {}, {},
  {}, {},
  {}, {},
  {}, {},
  {}, {},
  {}, {},
  {}, {},
  {}, {},
  {}, {},
  {}, {},
  {}, {},
  {}, {},
  {}, {},
  {}, {},
  {}, {},
  {}, {},
  {}, {},
  {}, {},
  {}, {},
  {}, {},
  {}, {},
  {}, {},
  {}, {},
  {}, {},
  {}, {},
  {}, {},
  {}, {},
  {}, {},
  {}, {},
  {}, {},
  {}, {},
  {}, {},
  {}, {},
  {}, {},
  {}, {},
  {}, {},
  {}, {},
  {}, {},
  {}, {},
  {}, {},
  {}, {},
  {}, {},
  {}, {},
  {}, {},
  {}, {},
  {}, {},
  {}, {},
  {}, {},
  {}, {},
  {}, {},
  {}, {},
  {}, {},
  {}, {},
  {}, {},
  {}, {},
  {}, {},
  {}, {},
  {}, {},
  {}, {},
  {}, {},
  {}, {},
  {}, {},
  {}, {},
  {}, {},
  {}, {},
  {}, {},
  {}, {},
  {}, {},
  {}, {},
  {}, {},
  {}, {},
  {}, {},
  {}, {},
  {}, {},
  {}, {},
  {}, {},
  {}, {},
  {}, {},
  {}, {},
  {}, {},
  {}, {},
  {}, {},
  {}, {},
  {}, {},
  {}, {},
  {}, {},
  {}, {},
  {}, {},
  {}, {},
  {}, {},
  {}, {},
  {}, {},
  {}, {},
  {}, {},
  {}, {},
  {}, {},
  {}, {},
  {}, {},
  {}, {},
  {}, {},
  {}, {},
  {}, {},
  {}, {},
  {}, {},
  {}, {},
  {}, {},
  {}, {},
  {}, {},
  {}, {},
  {}, {},
  {}, {},
  {}, {},
  {}, {},
  {}, {},
  {}, {},
  {}, {},
  {}, {},
  {}, {},
  {}, {},
  {}, {},
  {}, {},
  {}, {},
  {}, {},
  {}, {},
  {}, {},
  {}, {},
  {}, {},
  {}, {},
  {}, {},
  {}, {},
  {}, {},
  {}, {},
  {}, {},
  {}, {},
  {}, {},
  {}, {},
  {}, {},
  {}, {},
  {}, {},
  {}, {},
  {}, {},
  {}, {},
  {}, {},
  {}, {},
  {}, {},
  {}, {},
  {}, {},
  {}, {},
  {}, {},
  {}, {},
  {}, {},
  {}, {},
  {}, {},
  {}, {},
  {}, {},
  {}, {},
  {}, {},
  {}, {},
  {}, {},
  {}, {},
  {}, {},
  {}, {},
  {}, {},
  {}, {},
  {}, {},
  {}, {},
  {}, {},
  {}, {},
  {}, {},
  {}, {},
  {}, {},
  {}, {},
  {}, {},
  {}, {},
  {}, {},
  {}, {},
  {}, {},
  {}, {},
  {}, {},
  {}, {},
  {}, {},
  {}, {},
  {}, {},
  {}, {},
  {}, {},
  {}, {},
  {}, {},
  {}, {},
  {}, {},
  {}, {},
  {}, {},
  {}, {},
  {}, {},
  {}, {},
  {}, {},
  {}, {},
  {}, {},
  {}, {},
  {}, {},
  {}, {},
  {}, {},
  {}, {},
  {}, {},
  {}, {},
  {}, {},
  {}, {},
  {}, {},
  {}, {},
  {}, {},
  {}, {},
  {}, {},
  {}, {},
  {}, {},
  {}, {},
  {}, {},
  {}, {},
  {}, {},
  {}, {},
  {}, {},
  {}, {},
  {}, {},
  {}, {},
  {}, {},
  {}, {},
  {}, {},
  {}, {},
  {}, {},
  {}, {},
  {}, {},
  {}, {},
  {}, {},
  {}, {},
  {}, {},
  {}, {},
  {}, {},
  {}, {},
  {}, {},
  {}, {},
  {}, {},
  {}, {},
  {}, {},
  {}, {},
  {}, {},
  {}, {},
  {}, {},
  {}, {},
  {}, {},
  {}, {},
  {}, {},
  {}, {},
  {}, {},
  {}, {},
  {}, {},
  {}, {},
  {}, {},
  {}, {},
  {}, {},
  {}, {},
  {}, {},
  {}, {},
  {}, {},
  {}, {},
  {}, {},
  {}, {},
  {}, {},
  {}, {},
  {}, {},
  {}, {},
  {}, {},
  {}, {},
  {}, {},
  {}, {},
  {}, {},
  {}, {},
  {}, {},
  {}, {},
  {}, {},
  {}, {},
  {}, {},
  {}, {},
  {}, {},
  {}, {},
  {}, {},
  {}, {},
  {}, {},
  {}, {},
  {}, {},
  {}, {},
  {}, {},
  {}, {},
  {}, {},
  {}, {},
  {}, {},
  {}, {},
  {}, {},
  {}, {},
  {}, {},
  {}, {},
  {}, {},
  {}, {},
  {}, {},
  {}, {},
  {}, {},
  {}, {},
  {}, {},
  {}, {},
  {}, {},
  {}, {},
  {}, {},
  {}, {},
  {}, {},
  {}, {},
  {}, {},
  {}, {},
  {}, {},
  {}, {},
  {}, {},
  {}, {},
  {}, {},
  {}, {},
  {}, {},
  {}, {},
  {}, {},
  {}, {},
  {}, {},
  {}, {},
  {}, {},
  {}, {},
  {}, {},
  {}, {},
  {}, {},
  {}, {},
  {}, {},
  {}, {},
  {}, {},
  {}, {},
  {}, {},
  {}, {},
  {}, {},
  {}, {},
  {}, {},
  {}, {},
  {}, {},
  {}, {},
  {}, {},
  {}, {},
  {}, {},
  {}, {},
  {}, {},
  {}, {},
  {}, {},
  {}, {},
  {}, {},
  {}, {},
  {}, {},
  {}, {},
  {}, {},
  {}, {},
  {}, {},
  {}, {},
  {}, {},
  {}, {},
  {}, {},
  {}, {},
  {}, {},
  {}, {},
  {}, {},
  {}, {},
  {}, {},
  {}, {},
  {}, {},
  {}, {},
  {}, {},
  {}, {},
  {}, {},
  {}, {},
  {}, {},
  {}, {},
  {}, {},
  {}, {},
  {}, {},
  {}, {},
  {}, {},
  {}, {},
  {}, {},
  {}, {},
  {}, {},
  {}, {},
  {}, {},
  {}, {},
  {}, {},
  {}, {},
  {}, {},
  {}, {},
  {}, {},
  {}, {},
  {}, {},
  {}, {},
  {}, {},
  {}, {},
  {}, {},
  {}, {},
  {}, {},
  {}, {},
  {}, {},
  {}, {},
  {}, {},
  {}, {},
  {}, {},
  {}, {},
  {}, {},
  {}, {},
  {}, {},
  {}, {},
  {}, {},
  {}, {},
  {}, {},
  {}, {},
  {}, {},
  {}, {},
  {}, {},
  {}, {},
  {}, {},
  {}, {},
  {}, {},
  {}, {},
  {}, {},
  {}, {},
  {}, {},
  {}, {},
  {}, {},
  {}, {},
  {}, {},
  {}, {},
  {}, {},
  {}, {},
  {}, {},
  {}, {},
  {}, {},
  {}, {},
  {}, {},
  {}, {},
  {}, {},
  {}, {},
  {}, {},
  {}, {},
  {}, {},
  {}, {},
  {}, {},
  {}, {},
  {}, {},
  {}, {},
  {}, {},
  {}, {},
  {}, {},
  {}, {},
  {}, {},
  {}, {},
  {}, {},
  {}, {},
  {}, {},
  {}, {},
  {}, {},
  {}, {},
  {}, {},
  {}, {},
  {}, {},
  {}, {},
  {}, {},
  {}, {},
  {}, {},
  {}, {},
  {}, {},
  {}, {},
  {}, {},
  {}, {},
  {}, {},
  {}, {},
  {}, {},
  {}, {},
  {}, {},
  {}, {},
  {}, {},
  {}, {},
  {}, {},
  {}, {},
  {}, {},
  {}, {},
  {}, {},
  {}, {},
  {}, {},
  {}, {},
  {}, {},
  {}, {},
  {}, {},
  {}, {},
  {}, {},
  {}, {},
  {}, {},
  {}, {},
  {}, {},
  {}, {},
  {}, {},
  {}, {},
  {}, {}
]);
